sat
(:eliminated-applications 2
 :eliminated-vars         1
 :max-memory              18.04
 :memory                  17.94
 :nlsat-conflicts         1
 :nlsat-learned-added     1
 :nlsat-propagations      11
 :nlsat-stages            4
 :num-allocs              5638
 :rlimit-count            1325
 :time                    0.00
 :total-time              0.01)
